proyfinal/src/viki/013/experimentInOfficeAgust.take6.output/6041f9bb-eaf5-4ad7-8adc-3e8c58bc266e.als.dat
{'cnf.clauses': '118081',
 'cnf.totvars': '69608',
 'conflict literals': '1',
 'conflicts': '2',
 'decisions': '424',
 'memused.mb': '16.71',
 'outcome': 'UNSAT',
 'propagations': '19158',
 'restarts': '1',
 'solver.msecs': 34,
 'task.msecs': 85}
