proyfinal/src/viki/013/experimentInOfficeAgust.take6.output/6041f9bb-eaf5-4ad7-8adc-3e8c58bc266e.als.out
Reading from standard input... Use '--help' for help.
============================[ Problem Statistics ]=============================
|                                                                             |
|  Number of variables:         69608                                         |
|  Number of clauses:          118081                                         |
|  Parse time:                   0.03 s                                       |
|                                                                             |
============================[ Search Statistics ]==============================
| Conflicts |          ORIGINAL         |          LEARNT          | Progress |
|           |    Vars  Clauses Literals |    Limit  Clauses Lit/Cl |          |
===============================================================================
===============================================================================
restarts              : 1
conflicts             : 2              (57 /sec)
decisions             : 424            (0.00 % random) (12163 /sec)
propagations          : 19158          (549554 /sec)
conflict literals     : 1              (0.00 % deleted)
Memory used           : 16.71 MB
CPU time              : 0.034861 s

UNSATISFIABLE
